experiments/california_census/experiments_appendix/Instance1/mmc_encoding/mmc_cegqs_0.dimacs
c max 114  116  117  118  131  133  134  135  136  137  138  139  140  141  142  143  147  148 0
c ind 242  243  246  247  250  251  254  255  258  259  262  263  266  267  270  271  274  275  276  278  279  280 0
c This is a CNF SAT formula in the DIMACS CNF format,
c produced with the bc2cnf translator by Tommi Junttila;
c see http://users.ics.aalto.fi/tjunttil/circuits/index.html
c phi_Gamma_det <-> 1
c phi_Gamma <-> 1
c phi_T_transitions <-> 1
c phi_T <-> 1
c phi_sim_leaves <-> 1
c phi_sim_transition <-> 1
c phi_sim <-> 1
c FORMULA <-> 1
c pi_0 <-> 2
c pi_Class_3 <-> 60
c pi_Class_2 <-> 60
c phi_T_transitions_consistency <-> 61
c tau_0_3_Class_3 <-> 114
c tau_0_3_Class_2 <-> 116
c tau_0_3_Class_1 <-> 117
c tau_0_3_Class_0 <-> 118
c tau_0_2_Class_3 <-> 131
c tau_0_2_Class_2 <-> 133
c tau_0_2_Class_1 <-> 134
c tau_0_2_Class_0 <-> 135
c tau_0_1_Class_3 <-> 136
c tau_0_1_Class_2 <-> 137
c tau_0_1_Class_1 <-> 138
c tau_0_1_Class_0 <-> 139
c tau_0_0_Class_3 <-> 140
c tau_0_0_Class_2 <-> 141
c tau_0_0_Class_1 <-> 142
c tau_0_0_Class_0 <-> 143
c phi_T_feature_det <-> 144
c lam_0_median_income <-> 147
c lam_0_population <-> 148
c phi_Gamma_val <-> 240
c median_income_P85 <-> 242
c population_P2632300 <-> 243
c median_income_P585 <-> 246
c population_P1339700 <-> 247
c median_income_P1182 <-> 250
c population_P2201400 <-> 251
c median_income_P774 <-> 254
c population_P3309500 <-> 255
c median_income_P1330 <-> 258
c population_P342100 <-> 259
c median_income_P1011 <-> 262
c population_P1075000 <-> 263
c median_income_P741 <-> 266
c population_P1607400 <-> 267
c median_income_P893 <-> 270
c population_P2683700 <-> 271
c pi_Class_1 <-> 274
c Class_P100 <-> 274
c median_income_P268 <-> 275
c population_P3227600 <-> 276
c pi_Class_0 <-> 278
c Class_P0 <-> 278
c median_income_P513 <-> 279
c population_P3534100 <-> 280
p cnf 280 741
1 0
2 -3 0
2 -12 0
-2 12 3 0
2 0
-3 4 0
-3 9 0
3 -9 -4 0
-4 -136 0
-4 5 0
4 -5 136 0
-5 -137 0
-5 6 0
5 -6 137 0
-6 7 0
-6 8 0
6 -8 -7 0
7 138 0
7 -274 0
-7 274 -138 0
8 139 0
8 -278 0
-8 278 -139 0
-9 10 0
-9 147 0
9 -147 -10 0
10 -11 0
10 -50 0
-10 50 11 0
11 -29 0
11 -57 0
-11 57 29 0
12 -13 0
12 -20 0
-12 20 13 0
-13 14 0
-13 43 0
13 -43 -14 0
-14 15 0
-14 147 0
14 -147 -15 0
15 -16 0
15 -52 0
-15 52 16 0
16 -17 0
16 -54 0
-16 54 17 0
17 -18 0
17 -41 0
-17 41 18 0
18 -19 0
18 -31 0
-18 31 19 0
19 -32 0
19 -56 0
-19 56 32 0
20 -21 0
20 -33 0
-20 33 21 0
-21 22 0
-21 27 0
21 -27 -22 0
-22 -114 0
-22 23 0
22 -23 114 0
-23 -116 0
-23 24 0
23 -24 116 0
-24 25 0
-24 26 0
24 -26 -25 0
25 117 0
25 -274 0
-25 274 -117 0
26 118 0
26 -278 0
-26 278 -118 0
-27 28 0
-27 148 0
27 -148 -28 0
28 -29 0
28 -30 0
-28 30 29 0
-29 246 0
-29 247 0
29 -247 -246 0
30 -31 0
30 -32 0
-30 32 31 0
-31 262 0
-31 263 0
31 -263 -262 0
-32 266 0
-32 267 0
32 -267 -266 0
33 -34 0
33 -42 0
-33 42 34 0
-34 35 0
-34 40 0
34 -40 -35 0
-35 -131 0
-35 36 0
35 -36 131 0
-36 -133 0
-36 37 0
36 -37 133 0
-37 38 0
-37 39 0
37 -39 -38 0
38 134 0
38 -274 0
-38 274 -134 0
39 135 0
39 -278 0
-39 278 -135 0
-40 41 0
-40 148 0
40 -148 -41 0
-41 258 0
-41 259 0
41 -259 -258 0
-42 43 0
-42 48 0
42 -48 -43 0
-43 -140 0
-43 44 0
43 -44 140 0
-44 -141 0
-44 45 0
44 -45 141 0
-45 46 0
-45 47 0
45 -47 -46 0
46 142 0
46 -274 0
-46 274 -142 0
47 143 0
47 -278 0
-47 278 -143 0
-48 49 0
-48 148 0
48 -148 -49 0
49 -50 0
49 -51 0
-49 51 50 0
-50 242 0
-50 243 0
50 -243 -242 0
51 -52 0
51 -53 0
-51 53 52 0
-52 250 0
-52 251 0
52 -251 -250 0
53 -54 0
53 -55 0
-53 55 54 0
-54 254 0
-54 255 0
54 -255 -254 0
55 -56 0
55 -57 0
-55 57 56 0
-56 270 0
-56 271 0
56 -271 -270 0
57 -58 0
57 -59 0
-57 59 58 0
-58 275 0
-58 276 0
58 -276 -275 0
-59 279 0
-59 280 0
59 -280 -279 0
-60 0
61 147 0
61 -62 0
-61 62 -147 0
61 0
-62 -114 0
-62 63 0
62 -63 114 0
-63 -116 0
-63 64 0
63 -64 116 0
-64 -117 0
-64 65 0
64 -65 117 0
-65 -118 0
-65 66 0
65 -66 118 0
-66 -131 0
-66 67 0
66 -67 131 0
-67 -133 0
-67 68 0
67 -68 133 0
-68 -134 0
-68 -135 0
68 135 134 0
69 147 0
69 -70 0
-69 70 -147 0
69 0
-70 71 0
-70 85 0
70 -85 -71 0
71 -72 0
71 -74 0
-71 74 72 0
-72 73 0
-72 136 0
72 -136 -73 0
-73 -137 0
-73 77 0
73 -77 137 0
74 -75 0
74 -78 0
-74 78 75 0
-75 76 0
-75 137 0
75 -137 -76 0
-76 -136 0
-76 77 0
76 -77 136 0
-77 -138 0
-77 -139 0
77 139 138 0
78 -79 0
78 -82 0
-78 82 79 0
-79 80 0
-79 138 0
79 -138 -80 0
-80 -136 0
-80 81 0
80 -81 136 0
-81 -137 0
-81 -139 0
81 139 137 0
-82 83 0
-82 139 0
82 -139 -83 0
-83 -136 0
-83 84 0
83 -84 136 0
-84 -137 0
-84 -138 0
84 138 137 0
85 -86 0
85 -88 0
-85 88 86 0
-86 87 0
-86 140 0
86 -140 -87 0
-87 -141 0
-87 91 0
87 -91 141 0
88 -89 0
88 -92 0
-88 92 89 0
-89 90 0
-89 141 0
89 -141 -90 0
-90 -140 0
-90 91 0
90 -91 140 0
-91 -142 0
-91 -143 0
91 143 142 0
92 -93 0
92 -96 0
-92 96 93 0
-93 94 0
-93 142 0
93 -142 -94 0
-94 -140 0
-94 95 0
94 -95 140 0
-95 -141 0
-95 -143 0
95 143 141 0
-96 97 0
-96 143 0
96 -143 -97 0
-97 -140 0
-97 98 0
97 -98 140 0
-98 -141 0
-98 -142 0
98 142 141 0
99 148 0
99 -100 0
-99 100 -148 0
99 0
-100 101 0
-100 119 0
100 -119 -101 0
101 -102 0
101 -104 0
-101 104 102 0
-102 103 0
-102 114 0
102 -114 -103 0
-103 -116 0
-103 107 0
103 -107 116 0
104 -105 0
104 -108 0
-104 108 105 0
-105 106 0
-105 116 0
105 -116 -106 0
-106 -114 0
-106 107 0
106 -107 114 0
-107 -117 0
-107 -118 0
107 118 117 0
108 -109 0
108 -112 0
-108 112 109 0
-109 110 0
-109 117 0
109 -117 -110 0
-110 -114 0
-110 111 0
110 -111 114 0
-111 -116 0
-111 -118 0
111 118 116 0
-112 113 0
-112 118 0
112 -118 -113 0
-113 -114 0
-113 115 0
113 -115 114 0
-115 -116 0
-115 -117 0
115 117 116 0
-119 70 0
-119 120 0
119 -120 -70 0
120 -121 0
120 -122 0
-120 122 121 0
-121 67 0
-121 131 0
121 -131 -67 0
122 -123 0
122 -125 0
-122 125 123 0
-123 124 0
-123 133 0
123 -133 -124 0
-124 -131 0
-124 68 0
124 -68 131 0
125 -126 0
125 -129 0
-125 129 126 0
-126 127 0
-126 134 0
126 -134 -127 0
-127 -131 0
-127 128 0
127 -128 131 0
-128 -133 0
-128 -135 0
128 135 133 0
-129 130 0
-129 135 0
129 -135 -130 0
-130 -131 0
-130 132 0
130 -132 131 0
-132 -133 0
-132 -134 0
132 134 133 0
144 -145 0
144 -146 0
-144 146 145 0
144 0
-145 -148 0
-145 147 0
145 -147 148 0
-146 -147 0
-146 148 0
146 -148 147 0
149 278 0
149 274 0
-149 -274 -278 0
149 0
150 246 0
150 242 0
-150 -242 -246 0
150 0
151 250 0
151 -152 0
-151 152 -250 0
151 0
-152 -246 0
-152 -242 0
152 242 246 0
153 254 0
153 -154 0
-153 154 -254 0
153 0
-154 -242 0
-154 155 0
154 -155 242 0
-155 -246 0
-155 -250 0
155 250 246 0
156 258 0
156 -157 0
-156 157 -258 0
156 0
-157 -242 0
-157 158 0
157 -158 242 0
-158 -246 0
-158 159 0
158 -159 246 0
-159 -250 0
-159 -254 0
159 254 250 0
160 262 0
160 -161 0
-160 161 -262 0
160 0
-161 -242 0
-161 162 0
161 -162 242 0
-162 -246 0
-162 163 0
162 -163 246 0
-163 -250 0
-163 164 0
163 -164 250 0
-164 -254 0
-164 -258 0
164 258 254 0
165 266 0
165 -166 0
-165 166 -266 0
165 0
-166 -242 0
-166 167 0
166 -167 242 0
-167 -246 0
-167 168 0
167 -168 246 0
-168 -250 0
-168 169 0
168 -169 250 0
-169 -254 0
-169 170 0
169 -170 254 0
-170 -258 0
-170 -262 0
170 262 258 0
171 270 0
171 -172 0
-171 172 -270 0
171 0
-172 -242 0
-172 173 0
172 -173 242 0
-173 -246 0
-173 174 0
173 -174 246 0
-174 -250 0
-174 175 0
174 -175 250 0
-175 -254 0
-175 176 0
175 -176 254 0
-176 -258 0
-176 177 0
176 -177 258 0
-177 -262 0
-177 -266 0
177 266 262 0
178 275 0
178 -179 0
-178 179 -275 0
178 0
-179 -242 0
-179 180 0
179 -180 242 0
-180 -246 0
-180 181 0
180 -181 246 0
-181 -250 0
-181 182 0
181 -182 250 0
-182 -254 0
-182 183 0
182 -183 254 0
-183 -258 0
-183 184 0
183 -184 258 0
-184 -262 0
-184 185 0
184 -185 262 0
-185 -266 0
-185 -270 0
185 270 266 0
186 279 0
186 -187 0
-186 187 -279 0
186 0
-187 -242 0
-187 188 0
187 -188 242 0
-188 -246 0
-188 189 0
188 -189 246 0
-189 -250 0
-189 190 0
189 -190 250 0
-190 -254 0
-190 191 0
190 -191 254 0
-191 -258 0
-191 192 0
191 -192 258 0
-192 -262 0
-192 193 0
192 -193 262 0
-193 -266 0
-193 194 0
193 -194 266 0
-194 -270 0
-194 -275 0
194 275 270 0
195 247 0
195 243 0
-195 -243 -247 0
195 0
196 251 0
196 -197 0
-196 197 -251 0
196 0
-197 -247 0
-197 -243 0
197 243 247 0
198 255 0
198 -199 0
-198 199 -255 0
198 0
-199 -243 0
-199 200 0
199 -200 243 0
-200 -247 0
-200 -251 0
200 251 247 0
201 259 0
201 -202 0
-201 202 -259 0
201 0
-202 -243 0
-202 203 0
202 -203 243 0
-203 -247 0
-203 204 0
203 -204 247 0
-204 -251 0
-204 -255 0
204 255 251 0
205 263 0
205 -206 0
-205 206 -263 0
205 0
-206 -243 0
-206 207 0
206 -207 243 0
-207 -247 0
-207 208 0
207 -208 247 0
-208 -251 0
-208 209 0
208 -209 251 0
-209 -255 0
-209 -259 0
209 259 255 0
210 267 0
210 -211 0
-210 211 -267 0
210 0
-211 -243 0
-211 212 0
211 -212 243 0
-212 -247 0
-212 213 0
212 -213 247 0
-213 -251 0
-213 214 0
213 -214 251 0
-214 -255 0
-214 215 0
214 -215 255 0
-215 -259 0
-215 -263 0
215 263 259 0
216 271 0
216 -217 0
-216 217 -271 0
216 0
-217 -243 0
-217 218 0
217 -218 243 0
-218 -247 0
-218 219 0
218 -219 247 0
-219 -251 0
-219 220 0
219 -220 251 0
-220 -255 0
-220 221 0
220 -221 255 0
-221 -259 0
-221 222 0
221 -222 259 0
-222 -263 0
-222 -267 0
222 267 263 0
223 276 0
223 -224 0
-223 224 -276 0
223 0
-224 -243 0
-224 225 0
224 -225 243 0
-225 -247 0
-225 226 0
225 -226 247 0
-226 -251 0
-226 227 0
226 -227 251 0
-227 -255 0
-227 228 0
227 -228 255 0
-228 -259 0
-228 229 0
228 -229 259 0
-229 -263 0
-229 230 0
229 -230 263 0
-230 -267 0
-230 -271 0
230 271 267 0
231 280 0
231 -232 0
-231 232 -280 0
231 0
-232 -243 0
-232 233 0
232 -233 243 0
-233 -247 0
-233 234 0
233 -234 247 0
-234 -251 0
-234 235 0
234 -235 251 0
-235 -255 0
-235 236 0
235 -236 255 0
-236 -259 0
-236 237 0
236 -237 259 0
-237 -263 0
-237 238 0
237 -238 263 0
-238 -267 0
-238 239 0
238 -239 267 0
-239 -271 0
-239 -276 0
239 276 271 0
240 -241 0
240 -244 0
-240 244 241 0
240 0
-241 50 0
-241 274 0
241 -274 -50 0
244 -245 0
244 -248 0
-244 248 245 0
-245 29 0
-245 274 0
245 -274 -29 0
248 -249 0
248 -252 0
-248 252 249 0
-249 52 0
-249 274 0
249 -274 -52 0
252 -253 0
252 -256 0
-252 256 253 0
-253 54 0
-253 278 0
253 -278 -54 0
256 -257 0
256 -260 0
-256 260 257 0
-257 41 0
-257 278 0
257 -278 -41 0
260 -261 0
260 -264 0
-260 264 261 0
-261 31 0
-261 274 0
261 -274 -31 0
264 -265 0
264 -268 0
-264 268 265 0
-265 32 0
-265 274 0
265 -274 -32 0
268 -269 0
268 -272 0
-268 272 269 0
-269 56 0
-269 274 0
269 -274 -56 0
272 -273 0
272 -277 0
-272 277 273 0
-273 58 0
-273 274 0
273 -274 -58 0
-277 59 0
-277 278 0
277 -278 -59 0
